50
15464

611 989
318 463
562 383
316 828
724 292
875 985
313 702
82 248
852 882
705 347
626 985
866 697
481 659
521 108
652 672
988 177
569 328
106 926
271 817
133 197
825 400
156 665
91 379
92 662
847 741
139 962
215 5
624 813
749 135
457 458
45 12
591 96
51 585
157 37
991 870
761 221
859 607
487 24
651 693
669 910
387 652
195 627
977 586
474 278
521 769
234 827
264 436
604 542
550 178
68 728
